language ESSENCE' 1.0
letting values be [[1, 2, 8, 0, 0, 6, 0, 7, 9], [0, 0, 5, 0, 0, 9, 2, 6, 0], [0, 0, 0, 0, 5, 8, 1, 0, 3], [4, 0, 0, 0, 0, 0, 0, 0, 0], [2, 1, 0, 0, 0, 0, 0, 0, 0], [5, 9, 0, 1, 8, 7, 4, 0, 0], [6, 5, 0, 0, 3, 0, 0, 9, 7], [9, 3, 0, 8, 7, 1, 6, 0, 0], [8, 0, 4, 0, 0, 0, 3, 0, 1]]